CMD:
./solvers/bin/cadical --plain --no-reduce -t 1600 ./data/cnfs//rast-p01/rast-p01.59.cnf

c --- [ banner ] -------------------------------------------------------------
c 
c CaDiCaL SAT Solver
c Copyright (c) 2016-2024
c A. Biere, M. Fleury, N. Froleyks, K. Fazekas, F. Pollitt, T. Faller
c JKU Linz, University of Freiburg, TU Wien
c 
c Version 2.1.3 5296d3d2a9bf48c154ab2acb5e44625776d821bf
c g++ (Gentoo 12.3.1_p20230526 p2) 12.3.1 20230526 -Wall -Wextra -O3 -DNDEBUG
c Sat Aug 9 07:26:21 PDT 2025 Linux cedar2.int.cedar.computecanada.ca 5.14.0-362.24.2.el9_3.x86_64 x86_64
c 
c --- [ limit ] --------------------------------------------------------------
c 
c setting time limit to 1600 seconds real time (due to '-t 1600')
c 
c --- [ parsing input ] ------------------------------------------------------
c 
c reading DIMACS file from './data/cnfs//rast-p01/rast-p01.59.cnf'
c opening file to read './data/cnfs//rast-p01/rast-p01.59.cnf'
c found 'p cnf 3246891 9675244' header
c parsed 9675244 clauses in 1.61 seconds process time
c 
c --- [ options ] ------------------------------------------------------------
c 
c   --compact=false                (different from default 'true')
c   --decompose=false              (different from default 'true')
c   --deduplicate=false            (different from default 'true')
c   --elim=false                   (different from default 'true')
c   --probe=false                  (different from default 'true')
c   --reduce=false                 (different from default 'true')
c   --subsume=false                (different from default 'true')
c   --ternary=false                (different from default 'true')
c   --transred=false               (different from default 'true')
c   --vivify=false                 (different from default 'true')
c 
c --- [ solving ] ------------------------------------------------------------
c 
c time measured in process time since initialization
c 
c  seconds    reductions  redundant   irredundant
c          MB     restarts       trail         variables
c            level   conflicts       glue            remaining
c 
c *  1.61 1422  0 0   0    0    0  0% 0 9266261 2963166 91%
c {  2.32 1452  0 0   0    0    0  0% 0 9266261 2963166 91%
c i  2.37 1453 474 0   0    4    2 12% 2 9266261 2963163 91%
c i  2.37 1453 491 0   0    5    2 13% 1 9266261 2962546 91%
c i  2.39 1453 543 0   0   23   18 15% 1 9266261 2962522 91%
c i  2.40 1453 546 0   0   31   25 15% 1 9266261 2962514 91%
c i  2.40 1453 547 0   0   33   25 15% 1 9266261 2962491 91%
c i  2.40 1453 547 0   0   35   26 15% 1 9266261 2962481 91%
c i  2.40 1453 547 0   0   37   27 15% 1 9266261 2962471 91%
c i  2.40 1453 548 0   0   39   28 15% 1 9266261 2962461 91%
c i  2.40 1453 548 0   0   41   29 15% 1 9266261 2962451 91%
c i  2.41 1453 548 0   0   43   30 15% 1 9266261 2962441 91%
c i  2.41 1453 548 0   0   45   31 15% 1 9266261 2962431 91%
c i  2.41 1453 548 0   0   47   32 15% 1 9266261 2962421 91%
c i  2.41 1453 548 0   0   49   33 15% 1 9266261 2962411 91%
c i  2.41 1453 548 0   0   51   34 14% 1 9266261 2962401 91%
c i  2.41 1453 547 0   0   53   35 14% 1 9266261 2962391 91%
c i  2.41 1453 547 0   0   55   36 14% 1 9266261 2962381 91%
c i  2.41 1453 547 0   0   57   37 14% 1 9266261 2962371 91%
c i  2.41 1453 547 0   0   59   38 14% 1 9266261 2962361 91%
c 
c  seconds     reductions  redundant   irredundant
c          MB      restarts       trail         variables
c             level   conflicts       glue            remaining
c 
c i  2.41 1453 547 0   0   61   39 14% 1 9266261 2962351 91%
c i  2.42 1454 546 0   0   63   40 14% 1 9266261 2962341 91%
c i  2.42 1454 546 0   0   65   41 14% 1 9266261 2962331 91%
c i  2.42 1454 546 0   0   67   42 14% 1 9266261 2962321 91%
c i  2.42 1454 546 0   0   69   43 14% 1 9266261 2962311 91%
c i  2.42 1454 545 0   0   71   44 14% 1 9266261 2962301 91%
c i  2.42 1454 545 0   0   73   45 14% 1 9266261 2962291 91%
c i  2.42 1454 545 0   0   75   46 14% 1 9266261 2962281 91%
c i  2.42 1454 544 0   0   77   47 14% 1 9266261 2962271 91%
c i  2.42 1454 544 0   0   79   48 14% 1 9266261 2962261 91%
c i  2.42 1454 544 0   0   81   49 14% 1 9266261 2962251 91%
c i  2.42 1454 543 0   0   83   50 14% 1 9266261 2962241 91%
c i  2.42 1454 543 0   0   85   51 14% 1 9266261 2962231 91%
c i  2.43 1454 542 0   0   87   52 14% 1 9266261 2962221 91%
c i  2.43 1454 542 0   0   89   53 14% 1 9266261 2962211 91%
c i  2.43 1454 542 0   0   91   54 14% 1 9266261 2962201 91%
c i  2.43 1454 541 0   0   93   55 13% 1 9266261 2962191 91%
c i  2.43 1454 541 0   0   95   56 13% 1 9266261 2962181 91%
c i  2.43 1454 541 0   0   97   57 13% 1 9266261 2962171 91%
c i  2.43 1454 540 0   0   99   58 13% 1 9266261 2962161 91%
c 
c  seconds     reductions  redundant   irredundant
c          MB      restarts       trail         variables
c             level   conflicts       glue            remaining
c 
c i  2.43 1454 540 0   0  101   59 13% 1 9266261 2962151 91%
c i  2.43 1454 539 0   0  103   60 13% 1 9266261 2962141 91%
c i  2.43 1454 539 0   0  105   61 13% 1 9266261 2962131 91%
c i  2.43 1454 538 0   0  107   62 13% 1 9266261 2962121 91%
c i  2.43 1454 538 0   0  109   63 13% 1 9266261 2962111 91%
c i  2.43 1454 538 0   0  111   64 13% 1 9266261 2962101 91%
c i  2.44 1454 537 0   0  113   65 13% 1 9266261 2962091 91%
c i  2.44 1454 537 0   0  115   66 13% 1 9266261 2962081 91%
c i  2.44 1454 536 0   0  117   67 13% 1 9266261 2962071 91%
c i  2.44 1454 536 0   0  119   68 13% 1 9266261 2962061 91%
c i  2.44 1454 536 0   0  121   69 13% 1 9266261 2962051 91%
c i  2.44 1454 535 0   0  123   70 13% 1 9266261 2962041 91%
c i  2.45 1454 535 0   0  126   71 13% 1 9266261 2962031 91%
c i  3.18 1456 339 0  29  260  185 14% 5 9266261 2961735 91%
c i  3.43 1456 318 0  38  295  218 14% 5 9266261 2961734 91%
c i  3.43 1456 319 0  38  296  218 14% 5 9266261 2961733 91%
c i  3.52 1456 333 0  39  307  227 15% 5 9266261 2961732 91%
c i  3.53 1456 335 0  39  308  227 15% 5 9266261 2961731 91%
c i  3.53 1456 337 0  39  309  227 15% 5 9266261 2961730 91%
c i  3.53 1456 339 0  39  310  227 15% 5 9266261 2961729 91%
c 
c  seconds     reductions  redundant   irredundant
c          MB      restarts       trail         variables
c             level   conflicts       glue            remaining
c 
c i  3.53 1456 341 0  39  311  227 15% 5 9266261 2961728 91%
c i  3.54 1456 342 0  39  312  227 15% 5 9266261 2961727 91%
c i  3.54 1456 344 0  39  313  227 15% 4 9266261 2961726 91%
c i  3.54 1456 346 0  39  314  227 16% 4 9266261 2961725 91%
c i  3.54 1456 348 0  39  315  227 16% 4 9266261 2961724 91%
c i  3.55 1456 349 0  39  316  227 16% 4 9266261 2961723 91%
c i  3.55 1456 351 0  39  317  227 16% 4 9266261 2961722 91%
c }  3.56 1456 354 0  39  321  227 16% 4 9266261 2961515 91%
c 0  3.56 1456 354 0  39  321  227 16% 4 9266261 2961515 91%
c 
c --- [ result ] -------------------------------------------------------------
c 
s UNSATISFIABLE
c 
c --- [ run-time profiling ] -------------------------------------------------
c 
c process time taken by individual solving procedures
c (percentage relative to process time for solving)
c 
c         1.95   99.99% search
c         1.61   82.54% parse
c         1.24   63.48% unstable
c         0.71   36.51% lucky
c         0.00    0.00% simplify
c   =================================
c         1.95   54.77% solve
c 
c last line shows process time for solving
c (percentage relative to total process time)
c 
c --- [ statistics ] ---------------------------------------------------------
c 
c chronological:               175        54.52 %  of conflicts
c conflicts:                   321       164.49    per second
c decisions:                  9161      4694.26    per second
c fixed:                    282811         8.71 %  of all variables
c learned:                     297        92.52 %  per conflict
c learned_lits:               7661       100.00 %  learned literals
c minimized:                     0         0.00 %  learned literals
c shrunken:                   3721        48.57 %  learned literals
c minishrunken:                263         3.43 %  learned literals
c otfs:                          8         2.49 %  of conflict
c propagations:           11793136         6.04 M  per second
c restarts:                     39         8.23    interval
c subsumed:                      1         0.00 %  of all clauses
c strengthened:                  8         0.00 %  of all clauses
c 
c seconds are measured in process time for solving
c 
c --- [ resources ] ----------------------------------------------------------
c 
c total process time since initialization:         3.56    seconds
c total real time since initialization:            3.59    seconds
c maximum resident set size of process:         1454.75    MB
c 
c --- [ shutting down ] ------------------------------------------------------
c 
c exit 20
